
Gurobi 5.6.3 (mac64) logging started Thu Aug 28 00:09:15 2014


Gurobi 5.6.3 (mac64) logging started Thu Aug 28 12:32:53 2014


Gurobi 5.6.3 (mac64) logging started Thu Aug 28 12:42:52 2014


Gurobi 5.6.3 (mac64) logging started Thu Aug 28 13:23:02 2014


Gurobi 5.6.3 (mac64) logging started Thu Aug 28 13:38:27 2014


Gurobi 5.6.3 (mac64) logging started Thu Aug 28 14:56:11 2014


Gurobi 5.6.3 (mac64) logging started Thu Aug 28 15:08:28 2014


Gurobi 5.6.3 (mac64) logging started Thu Aug 28 15:18:20 2014


Gurobi 5.6.3 (mac64) logging started Thu Aug 28 15:27:19 2014


Gurobi 5.6.3 (mac64) logging started Thu Aug 28 15:42:31 2014


Gurobi 5.6.3 (mac64) logging started Thu Aug 28 16:04:03 2014


Gurobi 5.6.3 (mac64) logging started Thu Aug 28 16:17:57 2014


Gurobi 5.6.3 (mac64) logging started Thu Aug 28 16:52:23 2014


Gurobi 5.6.3 (mac64) logging started Thu Aug 28 17:10:32 2014


Gurobi 5.6.3 (mac64) logging started Fri Aug 29 13:29:50 2014


Gurobi 5.6.3 (mac64) logging started Fri Aug 29 13:36:34 2014


Gurobi 5.6.3 (mac64) logging started Fri Aug 29 13:51:44 2014


Gurobi 5.6.3 (mac64) logging started Fri Aug 29 16:53:10 2014


Gurobi 5.6.3 (mac64) logging started Tue Sep  2 16:51:05 2014


Gurobi 5.6.3 (mac64) logging started Tue Sep  2 17:05:31 2014


Gurobi 5.6.3 (mac64) logging started Wed Sep  3 14:52:02 2014


Gurobi 5.6.3 (mac64) logging started Wed Sep  3 15:01:46 2014


Gurobi 5.6.3 (mac64) logging started Wed Sep  3 15:03:39 2014


Gurobi 5.6.3 (mac64) logging started Wed Sep  3 15:04:59 2014


Gurobi 5.6.3 (mac64) logging started Wed Sep  3 15:06:03 2014


Gurobi 5.6.3 (mac64) logging started Wed Sep  3 15:06:39 2014


Gurobi 5.6.3 (mac64) logging started Wed Sep  3 15:07:06 2014


Gurobi 5.6.3 (mac64) logging started Wed Sep  3 15:07:30 2014


Gurobi 5.6.3 (mac64) logging started Wed Sep  3 15:08:08 2014


Gurobi 5.6.3 (mac64) logging started Wed Sep  3 15:08:26 2014


Gurobi 5.6.3 (mac64) logging started Wed Sep  3 15:08:54 2014


Gurobi 5.6.3 (mac64) logging started Wed Sep  3 15:09:28 2014


Gurobi 5.6.3 (mac64) logging started Wed Sep  3 15:10:03 2014


Gurobi 5.6.3 (mac64) logging started Wed Sep  3 15:10:38 2014


Gurobi 5.6.3 (mac64) logging started Wed Sep  3 15:12:11 2014


Gurobi 5.6.3 (mac64) logging started Wed Sep  3 15:12:34 2014


Gurobi 5.6.3 (mac64) logging started Wed Sep  3 15:13:00 2014


Gurobi 5.6.3 (mac64) logging started Wed Sep  3 15:14:46 2014


Gurobi 5.6.3 (mac64) logging started Wed Sep  3 15:15:26 2014


Gurobi 5.6.3 (mac64) logging started Wed Sep  3 15:16:10 2014


Gurobi 5.6.3 (mac64) logging started Wed Sep  3 15:21:22 2014


Gurobi 5.6.3 (mac64) logging started Wed Sep  3 15:22:08 2014


Gurobi 5.6.3 (mac64) logging started Wed Sep  3 15:25:16 2014


Gurobi 5.6.3 (mac64) logging started Wed Sep  3 15:25:54 2014


Gurobi 5.6.3 (mac64) logging started Wed Sep  3 15:27:40 2014


Gurobi 5.6.3 (mac64) logging started Wed Sep  3 15:28:14 2014


Gurobi 5.6.3 (mac64) logging started Wed Sep  3 15:29:48 2014


Gurobi 5.6.3 (mac64) logging started Wed Sep  3 15:31:45 2014


Gurobi 5.6.3 (mac64) logging started Wed Sep  3 15:32:41 2014


Gurobi 5.6.3 (mac64) logging started Wed Sep  3 15:32:53 2014


Gurobi 5.6.3 (mac64) logging started Wed Sep  3 15:33:14 2014


Gurobi 5.6.3 (mac64) logging started Wed Sep  3 15:35:14 2014


Gurobi 5.6.3 (mac64) logging started Wed Sep  3 15:38:05 2014


Gurobi 5.6.3 (mac64) logging started Wed Sep  3 15:38:18 2014


Gurobi 5.6.3 (mac64) logging started Thu Sep 11 15:47:17 2014


Gurobi 5.6.3 (mac64) logging started Thu Sep 11 16:11:26 2014


Gurobi 5.6.3 (mac64) logging started Thu Sep 11 16:14:25 2014


Gurobi 5.6.3 (mac64) logging started Thu Sep 11 16:22:18 2014


Gurobi 5.6.3 (mac64) logging started Thu Sep 11 16:24:49 2014


Gurobi 5.6.3 (mac64) logging started Thu Sep 11 16:26:58 2014


Gurobi 5.6.3 (mac64) logging started Thu Sep 11 16:29:35 2014


Gurobi 5.6.3 (mac64) logging started Thu Sep 11 16:30:28 2014


Gurobi 5.6.3 (mac64) logging started Thu Sep 11 16:33:38 2014


Gurobi 5.6.3 (mac64) logging started Thu Sep 11 16:52:42 2014


Gurobi 5.6.3 (mac64) logging started Thu Sep 11 17:10:41 2014


Gurobi 5.6.3 (mac64) logging started Thu Sep 11 17:26:19 2014


Gurobi 5.6.3 (mac64) logging started Thu Sep 11 17:34:26 2014


Gurobi 5.6.3 (mac64) logging started Thu Sep 11 17:35:15 2014


Gurobi 5.6.3 (mac64) logging started Thu Sep 11 17:57:16 2014


Gurobi 5.6.3 (mac64) logging started Fri Sep 12 14:46:41 2014


Gurobi 5.6.3 (mac64) logging started Fri Sep 12 15:07:51 2014


Gurobi 5.6.3 (mac64) logging started Fri Sep 12 15:14:44 2014


Gurobi 5.6.3 (mac64) logging started Fri Sep 12 15:19:19 2014


Gurobi 5.6.3 (mac64) logging started Fri Sep 12 15:25:25 2014


Gurobi 5.6.3 (mac64) logging started Fri Sep 12 15:30:40 2014


Gurobi 5.6.3 (mac64) logging started Fri Sep 12 15:34:33 2014


Gurobi 5.6.3 (mac64) logging started Fri Sep 12 15:59:22 2014


Gurobi 5.6.3 (mac64) logging started Fri Sep 12 16:13:43 2014


Gurobi 5.6.3 (mac64) logging started Fri Sep 12 16:16:11 2014


Gurobi 5.6.3 (mac64) logging started Fri Sep 12 16:25:46 2014


Gurobi 5.6.3 (mac64) logging started Fri Sep 12 16:28:01 2014


Gurobi 5.6.3 (mac64) logging started Fri Sep 12 17:10:52 2014


Gurobi 5.6.3 (mac64) logging started Sun Sep 14 12:15:05 2014


Gurobi 5.6.3 (mac64) logging started Sun Sep 14 12:31:57 2014


Gurobi 5.6.3 (mac64) logging started Sun Sep 14 13:17:31 2014


Gurobi 5.6.3 (mac64) logging started Sun Sep 14 13:25:09 2014


Gurobi 5.6.3 (mac64) logging started Sun Sep 14 13:46:22 2014


Gurobi 5.6.3 (mac64) logging started Sun Sep 14 13:58:38 2014


Gurobi 5.6.3 (mac64) logging started Sun Sep 14 15:50:59 2014


Gurobi 5.6.3 (mac64) logging started Mon Sep 15 14:46:40 2014


Gurobi 5.6.3 (mac64) logging started Mon Sep 15 14:51:52 2014


Gurobi 5.6.3 (mac64) logging started Mon Sep 15 14:58:37 2014


Gurobi 5.6.3 (mac64) logging started Mon Sep 15 15:00:18 2014


Gurobi 5.6.3 (mac64) logging started Mon Sep 15 15:01:01 2014


Gurobi 5.6.3 (mac64) logging started Mon Sep 15 15:12:20 2014


Gurobi 5.6.3 (mac64) logging started Mon Sep 15 15:26:38 2014


Gurobi 5.6.3 (mac64) logging started Mon Sep 15 15:27:43 2014


Gurobi 5.6.3 (mac64) logging started Mon Sep 15 15:49:14 2014


Gurobi 5.6.3 (mac64) logging started Mon Sep 15 16:06:11 2014


Gurobi 5.6.3 (mac64) logging started Mon Sep 15 16:37:20 2014


Gurobi 5.6.3 (mac64) logging started Mon Sep 15 16:58:37 2014


Gurobi 5.6.3 (mac64) logging started Tue Sep 16 14:11:57 2014


Gurobi 5.6.3 (mac64) logging started Tue Sep 16 14:33:03 2014


Gurobi 5.6.3 (mac64) logging started Tue Sep 16 14:36:43 2014


Gurobi 5.6.3 (mac64) logging started Tue Sep 16 14:49:49 2014


Gurobi 5.6.3 (mac64) logging started Tue Sep 16 15:08:39 2014


Gurobi 5.6.3 (mac64) logging started Tue Sep 16 16:37:53 2014


Gurobi 5.6.3 (mac64) logging started Tue Sep 16 16:48:06 2014


Gurobi 5.6.3 (mac64) logging started Tue Sep 16 16:49:53 2014


Gurobi 5.6.3 (mac64) logging started Wed Sep 17 15:44:37 2014


Gurobi 5.6.3 (mac64) logging started Wed Sep 17 15:47:38 2014


Gurobi 5.6.3 (mac64) logging started Wed Sep 17 15:48:01 2014


Gurobi 5.6.3 (mac64) logging started Wed Sep 17 15:48:26 2014


Gurobi 5.6.3 (mac64) logging started Wed Sep 17 15:48:46 2014


Gurobi 5.6.3 (mac64) logging started Wed Sep 17 15:51:17 2014


Gurobi 5.6.3 (mac64) logging started Wed Sep 17 15:55:31 2014


Gurobi 5.6.3 (mac64) logging started Wed Sep 17 15:56:15 2014


Gurobi 5.6.3 (mac64) logging started Wed Sep 17 15:58:52 2014


Gurobi 5.6.3 (mac64) logging started Wed Sep 17 16:00:54 2014


Gurobi 5.6.3 (mac64) logging started Thu Sep 18 14:56:52 2014


Gurobi 5.6.3 (mac64) logging started Thu Sep 18 15:19:37 2014


Gurobi 5.6.3 (mac64) logging started Thu Sep 18 15:44:13 2014


Gurobi 5.6.3 (mac64) logging started Thu Sep 18 15:50:27 2014


Gurobi 5.6.3 (mac64) logging started Thu Sep 18 15:51:39 2014


Gurobi 5.6.3 (mac64) logging started Thu Sep 18 15:51:58 2014


Gurobi 5.6.3 (mac64) logging started Thu Sep 18 15:52:29 2014


Gurobi 5.6.3 (mac64) logging started Thu Sep 18 16:10:38 2014


Gurobi 5.6.3 (mac64) logging started Thu Sep 18 16:29:47 2014


Gurobi 5.6.3 (mac64) logging started Thu Sep 18 16:31:01 2014


Gurobi 5.6.3 (mac64) logging started Thu Sep 18 16:50:07 2014


Gurobi 5.6.3 (mac64) logging started Thu Sep 18 17:27:47 2014


Gurobi 5.6.3 (mac64) logging started Thu Sep 18 22:34:16 2014


Gurobi 5.6.3 (mac64) logging started Thu Sep 18 22:57:01 2014


Gurobi 5.6.3 (mac64) logging started Fri Sep 19 14:27:40 2014


Gurobi 5.6.3 (mac64) logging started Fri Sep 19 15:29:21 2014


Gurobi 5.6.3 (mac64) logging started Fri Sep 19 18:44:15 2014


Gurobi 5.6.3 (mac64) logging started Fri Sep 19 19:23:03 2014


Gurobi 5.6.3 (mac64) logging started Sat Sep 20 00:58:22 2014


Gurobi 5.6.3 (mac64) logging started Sat Sep 20 02:14:12 2014


Gurobi 5.6.3 (mac64) logging started Sat Sep 20 03:04:57 2014


Gurobi 5.6.3 (mac64) logging started Sat Sep 20 03:09:50 2014


Gurobi 5.6.3 (mac64) logging started Sat Sep 20 13:43:19 2014


Gurobi 5.6.3 (mac64) logging started Sat Sep 20 14:57:09 2014


Gurobi 5.6.3 (mac64) logging started Sat Sep 20 15:13:29 2014


Gurobi 5.6.3 (mac64) logging started Sat Sep 20 15:15:30 2014


Gurobi 5.6.3 (mac64) logging started Mon Sep 22 18:41:19 2014


Gurobi 5.6.3 (mac64) logging started Mon Sep 22 18:42:45 2014


Gurobi 5.6.3 (mac64) logging started Mon Sep 22 18:43:44 2014


Gurobi 5.6.3 (mac64) logging started Mon Sep 22 18:44:02 2014


Gurobi 5.6.3 (mac64) logging started Mon Sep 22 19:02:22 2014


Gurobi 5.6.3 (mac64) logging started Wed Sep 24 11:39:52 2014


Gurobi 5.6.3 (mac64) logging started Wed Sep 24 11:46:36 2014


Gurobi 5.6.3 (mac64) logging started Wed Sep 24 11:51:22 2014


Gurobi 5.6.3 (mac64) logging started Wed Sep 24 11:53:05 2014


Gurobi 5.6.3 (mac64) logging started Wed Sep 24 12:05:02 2014


Gurobi 5.6.3 (mac64) logging started Wed Sep 24 12:09:46 2014


Gurobi 5.6.3 (mac64) logging started Wed Sep 24 12:10:29 2014


Gurobi 5.6.3 (mac64) logging started Wed Sep 24 12:20:41 2014


Gurobi 5.6.3 (mac64) logging started Wed Sep 24 13:57:02 2014


Gurobi 5.6.3 (mac64) logging started Wed Sep 24 13:58:44 2014


Gurobi 5.6.3 (mac64) logging started Wed Sep 24 14:03:00 2014


Gurobi 5.6.3 (mac64) logging started Wed Sep 24 14:03:48 2014


Gurobi 5.6.3 (mac64) logging started Wed Sep 24 14:19:07 2014


Gurobi 5.6.3 (mac64) logging started Wed Sep 24 14:19:53 2014


Gurobi 5.6.3 (mac64) logging started Wed Sep 24 14:20:54 2014


Gurobi 5.6.3 (mac64) logging started Wed Sep 24 14:23:10 2014


Gurobi 5.6.3 (mac64) logging started Wed Sep 24 14:24:20 2014


Gurobi 5.6.3 (mac64) logging started Wed Sep 24 14:33:23 2014


Gurobi 5.6.3 (mac64) logging started Wed Sep 24 14:36:49 2014


Gurobi 5.6.3 (mac64) logging started Wed Sep 24 14:40:29 2014


Gurobi 5.6.3 (mac64) logging started Wed Sep 24 14:45:29 2014


Gurobi 5.6.3 (mac64) logging started Wed Sep 24 14:47:44 2014


Gurobi 5.6.3 (mac64) logging started Wed Sep 24 14:51:05 2014


Gurobi 5.6.3 (mac64) logging started Wed Sep 24 15:07:31 2014


Gurobi 5.6.3 (mac64) logging started Wed Sep 24 15:23:46 2014


Gurobi 5.6.3 (mac64) logging started Wed Sep 24 15:40:37 2014


Gurobi 5.6.3 (mac64) logging started Wed Sep 24 15:44:54 2014


Gurobi 5.6.3 (mac64) logging started Wed Sep 24 15:46:56 2014


Gurobi 5.6.3 (mac64) logging started Wed Sep 24 15:50:42 2014


Gurobi 5.6.3 (mac64) logging started Wed Sep 24 15:53:43 2014


Gurobi 5.6.3 (mac64) logging started Wed Sep 24 16:01:32 2014


Gurobi 5.6.3 (mac64) logging started Wed Sep 24 16:02:28 2014


Gurobi 5.6.3 (mac64) logging started Wed Sep 24 16:04:32 2014


Gurobi 5.6.3 (mac64) logging started Wed Sep 24 16:18:15 2014


Gurobi 5.6.3 (mac64) logging started Wed Sep 24 16:32:39 2014


Gurobi 5.6.3 (mac64) logging started Wed Sep 24 16:33:51 2014


Gurobi 5.6.3 (mac64) logging started Wed Sep 24 16:50:24 2014


Gurobi 5.6.3 (mac64) logging started Wed Sep 24 17:13:35 2014


Gurobi 5.6.3 (mac64) logging started Wed Sep 24 18:01:06 2014


Gurobi 5.6.3 (mac64) logging started Wed Sep 24 18:17:15 2014


Gurobi 5.6.3 (mac64) logging started Fri Sep 26 14:47:00 2014


Gurobi 5.6.3 (mac64) logging started Fri Sep 26 14:51:49 2014


Gurobi 5.6.3 (mac64) logging started Mon Sep 29 17:02:39 2014


Gurobi 5.6.3 (mac64) logging started Mon Sep 29 17:07:51 2014


Gurobi 5.6.3 (mac64) logging started Tue Sep 30 15:02:02 2014


Gurobi 5.6.3 (mac64) logging started Tue Sep 30 15:05:15 2014


Gurobi 5.6.3 (mac64) logging started Tue Sep 30 15:51:05 2014


Gurobi 5.6.3 (mac64) logging started Tue Sep 30 16:11:03 2014


Gurobi 5.6.3 (mac64) logging started Tue Sep 30 16:15:22 2014


Gurobi 5.6.3 (mac64) logging started Tue Sep 30 16:18:39 2014


Gurobi 5.6.3 (mac64) logging started Tue Sep 30 16:25:01 2014


Gurobi 5.6.3 (mac64) logging started Tue Sep 30 16:31:54 2014


Gurobi 5.6.3 (mac64) logging started Tue Sep 30 16:35:09 2014


Gurobi 5.6.3 (mac64) logging started Wed Oct  1 02:18:22 2014


Gurobi 5.6.3 (mac64) logging started Wed Oct  1 11:14:46 2014


Gurobi 5.6.3 (mac64) logging started Wed Oct  1 15:27:57 2014


Gurobi 5.6.3 (mac64) logging started Wed Oct  1 16:54:54 2014


Gurobi 5.6.3 (mac64) logging started Thu Oct  2 14:27:32 2014


Gurobi 5.6.3 (mac64) logging started Thu Oct  2 16:00:51 2014


Gurobi 5.6.3 (mac64) logging started Thu Oct  2 18:07:57 2014


Gurobi 5.6.3 (mac64) logging started Fri Oct  3 11:23:59 2014


Gurobi 5.6.3 (mac64) logging started Fri Oct  3 13:02:22 2014


Gurobi 5.6.3 (mac64) logging started Fri Oct  3 13:33:22 2014


Gurobi 5.6.3 (mac64) logging started Fri Oct  3 13:49:38 2014


Gurobi 5.6.3 (mac64) logging started Fri Oct  3 15:19:11 2014


Gurobi 5.6.3 (mac64) logging started Fri Oct  3 15:29:10 2014


Gurobi 5.6.3 (mac64) logging started Fri Oct  3 16:06:27 2014


Gurobi 5.6.3 (mac64) logging started Fri Oct  3 23:46:54 2014


Gurobi 5.6.3 (mac64) logging started Sat Oct  4 12:20:20 2014


Gurobi 5.6.3 (mac64) logging started Sat Oct  4 19:51:29 2014


Gurobi 5.6.3 (mac64) logging started Sat Oct  4 19:53:39 2014


Gurobi 5.6.3 (mac64) logging started Sat Oct  4 21:15:53 2014


Gurobi 5.6.3 (mac64) logging started Sun Oct  5 02:51:41 2014


Gurobi 5.6.3 (mac64) logging started Sun Oct  5 10:15:05 2014


Gurobi 5.6.3 (mac64) logging started Sun Oct  5 11:34:43 2014


Gurobi 5.6.3 (mac64) logging started Sun Oct  5 11:41:00 2014


Gurobi 5.6.3 (mac64) logging started Sun Oct  5 12:49:51 2014


Gurobi 5.6.3 (mac64) logging started Sun Oct  5 18:55:35 2014


Gurobi 5.6.3 (mac64) logging started Sun Oct  5 22:01:38 2014


Gurobi 5.6.3 (mac64) logging started Mon Oct  6 00:02:31 2014


Gurobi 5.6.3 (mac64) logging started Mon Oct  6 02:53:37 2014


Gurobi 5.6.3 (mac64) logging started Mon Oct  6 11:03:29 2014


Gurobi 5.6.3 (mac64) logging started Mon Oct  6 12:00:07 2014


Gurobi 5.6.3 (mac64) logging started Mon Oct  6 14:55:57 2014


Gurobi 5.6.3 (mac64) logging started Mon Oct  6 14:58:15 2014


Gurobi 5.6.3 (mac64) logging started Mon Oct  6 15:37:38 2014


Gurobi 5.6.3 (mac64) logging started Mon Oct  6 15:47:34 2014


Gurobi 5.6.3 (mac64) logging started Mon Oct  6 16:29:35 2014


Gurobi 5.6.3 (mac64) logging started Mon Oct  6 23:22:25 2014


Gurobi 5.6.3 (mac64) logging started Tue Oct  7 02:22:29 2014


Gurobi 5.6.3 (mac64) logging started Tue Oct  7 10:41:07 2014


Gurobi 5.6.3 (mac64) logging started Tue Oct  7 14:33:52 2014


Gurobi 5.6.3 (mac64) logging started Tue Oct  7 17:19:39 2014


Gurobi 5.6.3 (mac64) logging started Tue Oct  7 17:23:54 2014


Gurobi 5.6.3 (mac64) logging started Tue Oct  7 20:32:25 2014


Gurobi 5.6.3 (mac64) logging started Tue Oct  7 23:47:18 2014


Gurobi 5.6.3 (mac64) logging started Wed Oct  8 02:50:50 2014


Gurobi 5.6.3 (mac64) logging started Wed Oct  8 16:52:12 2014


Gurobi 5.6.3 (mac64) logging started Wed Oct  8 16:52:33 2014


Gurobi 5.6.3 (mac64) logging started Wed Oct  8 17:32:03 2014


Gurobi 5.6.3 (mac64) logging started Wed Oct  8 17:32:27 2014


Gurobi 5.6.3 (mac64) logging started Wed Oct  8 17:44:50 2014


Gurobi 5.6.3 (mac64) logging started Wed Oct  8 17:46:20 2014


Gurobi 5.6.3 (mac64) logging started Thu Oct  9 00:41:26 2014


Gurobi 5.6.3 (mac64) logging started Thu Oct  9 00:45:35 2014


Gurobi 5.6.3 (mac64) logging started Thu Oct  9 01:18:04 2014


Gurobi 5.6.3 (mac64) logging started Thu Oct  9 11:37:11 2014


Gurobi 5.6.3 (mac64) logging started Thu Oct  9 14:13:21 2014


Gurobi 5.6.3 (mac64) logging started Thu Oct  9 14:21:41 2014

